g3 0 1 0	# problem d3n16R4R9d01d05
 16 12 1 0 4	# vars, constraints, objectives, ranges, eqns
 5 1	# nonlinear constraints, objectives
 0 0	# network constraints: nonlinear, linear
 16 16 16	# nonlinear vars in constraints, objectives, both
 0 0 0 1	# linear network variables; functions; arith, flags
 0 0 0 0 0	# discrete variables: binary, integer, nonlinear (b,c,o)
 160 16	# nonzeros in Jacobian, gradients
 0 0	# max name lengths: constraints, variables
 0 0 0 0 0	# common exprs: b,c,o,c1,o1
b
0 0.44 2.05
0 0.23 2.44
0 0.76 2.8
0 0.82 2.25
0 0.31 2.96
0 0.58 2.36
0 0.46 2.15
0 0.83 2.81
0 0.56 2.39
0 0.99 2.38
0 0.63 2.91
0 0.8 2.08
0 0.6 2.8
0 0.98 2.19
0 0.57 2.17
0 0.43 2.95
r
2 199.39
2 1282.6
2 179.33
2 1584.54
2 200.928
4 21.983
4 35.996
4 51.983
4 52.602
2 91.067
2 108.517
2 117.469
C0
o54
9
o2
o2
n0.1
v0
v0
o2
o2
n2.29
v0
v10
o2
o2
n4
v2
v12
o2
o2
n0.06
v4
v7
o16
o2
o2
n5.09
v6
v12
o2
o2
n3.33
v7
v8
o2
o2
n8.91
v7
v13
o2
o2
n6.21
v8
v11
o2
o2
n0.86
v9
v9
C1
o54
95
o2
o2
n3.99
v0
v0
o2
o2
n9.57
v0
v10
o16
o2
o2
n6.21
v2
v12
o2
o2
n5.93
v4
v7
o2
o2
n8.81
v6
v12
o2
o2
n5.18
v7
v8
o2
o2
n8.28
v7
v13
o2
o2
n0.87
v8
v11
o2
o2
n4.22
v9
v9
o16
o2
o2
o2
n7.55
v0
v0
v8
o2
o2
o2
n8.92
v0
v1
v2
o2
o2
o2
n8.73
v0
v1
v5
o2
o2
o2
n2.06
v0
v2
v12
o2
o2
o2
n2.28
v0
v3
v7
o2
o2
o2
n1.03
v0
v5
v6
o2
o2
o2
n5.77
v0
v6
v15
o16
o2
o2
o2
n2.18
v0
v7
v15
o2
o2
o2
n9.81
v0
v8
v9
o2
o2
o2
n3.17
v0
v8
v10
o2
o2
o2
n2.12
v0
v8
v14
o2
o2
o2
n1.9
v0
v9
v9
o2
o2
o2
n0.09
v0
v11
v11
o2
o2
o2
n2.18
v0
v15
v15
o16
o2
o2
o2
n4.68
v1
v1
v4
o16
o2
o2
o2
n1.64
v1
v1
v7
o2
o2
o2
n3.56
v1
v3
v13
o2
o2
o2
n1.94
v1
v4
v14
o2
o2
o2
n6.15
v1
v7
v7
o2
o2
o2
n6.86
v1
v8
v8
o2
o2
o2
n8.43
v1
v9
v9
o2
o2
o2
n8.38
v1
v11
v14
o2
o2
o2
n0.44
v2
v3
v7
o16
o2
o2
o2
n6.19
v2
v4
v4
o2
o2
o2
n4.08
v2
v4
v6
o16
o2
o2
o2
n0.82
v2
v6
v6
o2
o2
o2
n4.24
v2
v6
v12
o2
o2
o2
n5.87
v2
v9
v11
o2
o2
o2
n0.85
v2
v10
v11
o2
o2
o2
n9.47
v2
v10
v12
o16
o2
o2
o2
n4.88
v2
v10
v13
o2
o2
o2
n0.42
v2
v11
v11
o2
o2
o2
n5.96
v2
v11
v15
o2
o2
o2
n9.25
v2
v12
v15
o16
o2
o2
o2
n4.44
v2
v14
v14
o2
o2
o2
n9.53
v2
v15
v15
o16
o2
o2
o2
n5.8
v3
v3
v12
o2
o2
o2
n9.79
v3
v4
v12
o2
o2
o2
n0.09
v3
v6
v10
o2
o2
o2
n1.24
v3
v6
v15
o2
o2
o2
n4.35
v3
v7
v7
o2
o2
o2
n1.76
v3
v7
v11
o2
o2
o2
n0.68
v3
v7
v14
o2
o2
o2
n1.35
v3
v8
v8
o2
o2
o2
n7.94
v3
v9
v15
o16
o2
o2
o2
n9.39
v4
v4
v13
o2
o2
o2
n9.65
v4
v7
v11
o2
o2
o2
n9.07
v4
v8
v12
o2
o2
o2
n6.22
v4
v8
v15
o2
o2
o2
n9.24
v4
v10
v12
o2
o2
o2
n4.03
v5
v5
v5
o2
o2
o2
n8.97
v5
v5
v14
o2
o2
o2
n9.37
v5
v7
v9
o2
o2
o2
n5.28
v5
v7
v13
o2
o2
o2
n9.9
v5
v8
v8
o2
o2
o2
n9.12
v5
v8
v15
o2
o2
o2
n1.61
v5
v10
v10
o2
o2
o2
n0.15
v5
v12
v12
o2
o2
o2
n3.92
v5
v12
v13
o2
o2
o2
n5.49
v6
v6
v12
o2
o2
o2
n0.89
v6
v7
v14
o2
o2
o2
n2.72
v6
v8
v11
o16
o2
o2
o2
n1.2
v6
v8
v13
o2
o2
o2
n2.64
v6
v9
v13
o2
o2
o2
n4.88
v6
v11
v13
o2
o2
o2
n1.84
v6
v11
v15
o2
o2
o2
n9.42
v6
v12
v13
o2
o2
o2
n0.62
v6
v12
v15
o2
o2
o2
n3.22
v6
v13
v14
o2
o2
o2
n6.43
v7
v7
v8
o2
o2
o2
n9.15
v7
v9
v10
o16
o2
o2
o2
n8.16
v7
v9
v14
o2
o2
o2
n5.96
v7
v10
v11
o16
o2
o2
o2
n1.72
v7
v10
v15
o2
o2
o2
n0.48
v8
v8
v12
o2
o2
o2
n2.03
v8
v10
v12
o2
o2
o2
n8.3
v8
v12
v14
o2
o2
o2
n1.84
v8
v12
v15
o2
o2
o2
n5.85
v8
v13
v15
o2
o2
o2
n2.75
v9
v9
v15
o2
o2
o2
n1.58
v9
v12
v12
o2
o2
o2
n8.57
v11
v11
v11
o2
o2
o2
n9.16
v11
v11
v13
o2
o2
o2
n6.5
v12
v12
v14
o2
o2
o2
n0.48
v12
v12
v15
o16
o2
o2
o2
n6.38
v14
v15
v15
C2
o54
9
o2
o2
n7.02
v0
v0
o16
o2
o2
n4.13
v0
v10
o2
o2
n8.26
v2
v12
o2
o2
n6.18
v4
v7
o2
o2
n6.25
v6
v12
o2
o2
n1.83
v7
v8
o2
o2
n9.18
v7
v13
o2
o2
n1.05
v8
v11
o2
o2
n2.13
v9
v9
C3
o54
95
o2
o2
n0.84
v0
v0
o2
o2
n8
v0
v10
o2
o2
n1.56
v2
v12
o2
o2
n5.01
v4
v7
o16
o2
o2
n2.28
v6
v12
o2
o2
n3.3
v7
v8
o2
o2
n1.93
v7
v13
o2
o2
n5.33
v8
v11
o16
o2
o2
n2.19
v9
v9
o2
o2
o2
n1.17
v0
v0
v8
o2
o2
o2
n6.97
v0
v1
v2
o2
o2
o2
n5.8
v0
v1
v5
o16
o2
o2
o2
n0.78
v0
v2
v12
o2
o2
o2
n7.47
v0
v3
v7
o2
o2
o2
n6.49
v0
v5
v6
o2
o2
o2
n9.9
v0
v6
v15
o2
o2
o2
n7.73
v0
v7
v15
o2
o2
o2
n6.17
v0
v8
v9
o2
o2
o2
n6.2
v0
v8
v10
o2
o2
o2
n7.07
v0
v8
v14
o2
o2
o2
n9.2
v0
v9
v9
o2
o2
o2
n1.68
v0
v11
v11
o2
o2
o2
n7.82
v0
v15
v15
o16
o2
o2
o2
n3.13
v1
v1
v4
o2
o2
o2
n0.91
v1
v1
v7
o2
o2
o2
n7.22
v1
v3
v13
o2
o2
o2
n5.33
v1
v4
v14
o16
o2
o2
o2
n6.81
v1
v7
v7
o2
o2
o2
n7.61
v1
v8
v8
o2
o2
o2
n9.65
v1
v9
v9
o2
o2
o2
n7.53
v1
v11
v14
o2
o2
o2
n2.67
v2
v3
v7
o2
o2
o2
n8.72
v2
v4
v4
o2
o2
o2
n0.35
v2
v4
v6
o2
o2
o2
n6.81
v2
v6
v6
o2
o2
o2
n0.14
v2
v6
v12
o2
o2
o2
n0.25
v2
v9
v11
o2
o2
o2
n2.54
v2
v10
v11
o2
o2
o2
n4.21
v2
v10
v12
o2
o2
o2
n8.92
v2
v10
v13
o2
o2
o2
n2.94
v2
v11
v11
o2
o2
o2
n4.67
v2
v11
v15
o2
o2
o2
n0.69
v2
v12
v15
o2
o2
o2
n0.56
v2
v14
v14
o2
o2
o2
n6.73
v2
v15
v15
o2
o2
o2
n0.21
v3
v3
v12
o16
o2
o2
o2
n4.67
v3
v4
v12
o2
o2
o2
n6.31
v3
v6
v10
o2
o2
o2
n1.38
v3
v6
v15
o16
o2
o2
o2
n3.59
v3
v7
v7
o2
o2
o2
n5.85
v3
v7
v11
o2
o2
o2
n1.21
v3
v7
v14
o2
o2
o2
n3.37
v3
v8
v8
o2
o2
o2
n2.45
v3
v9
v15
o2
o2
o2
n5.19
v4
v4
v13
o2
o2
o2
n4.49
v4
v7
v11
o2
o2
o2
n9.12
v4
v8
v12
o16
o2
o2
o2
n6.1
v4
v8
v15
o2
o2
o2
n1.28
v4
v10
v12
o2
o2
o2
n6.09
v5
v5
v5
o2
o2
o2
n4.36
v5
v5
v14
o2
o2
o2
n0.25
v5
v7
v9
o2
o2
o2
n2.78
v5
v7
v13
o2
o2
o2
n9.62
v5
v8
v8
o2
o2
o2
n9.81
v5
v8
v15
o2
o2
o2
n8
v5
v10
v10
o2
o2
o2
n7.31
v5
v12
v12
o2
o2
o2
n1.35
v5
v12
v13
o2
o2
o2
n3.08
v6
v6
v12
o2
o2
o2
n7.04
v6
v7
v14
o2
o2
o2
n6.41
v6
v8
v11
o2
o2
o2
n5.63
v6
v8
v13
o2
o2
o2
n6.86
v6
v9
v13
o2
o2
o2
n3.15
v6
v11
v13
o2
o2
o2
n6.88
v6
v11
v15
o2
o2
o2
n6.49
v6
v12
v13
o2
o2
o2
n3.31
v6
v12
v15
o2
o2
o2
n9.93
v6
v13
v14
o2
o2
o2
n8.28
v7
v7
v8
o2
o2
o2
n5.45
v7
v9
v10
o2
o2
o2
n4.72
v7
v9
v14
o2
o2
o2
n4.74
v7
v10
v11
o2
o2
o2
n6.76
v7
v10
v15
o2
o2
o2
n5.66
v8
v8
v12
o2
o2
o2
n0.47
v8
v10
v12
o2
o2
o2
n0.98
v8
v12
v14
o2
o2
o2
n5.07
v8
v12
v15
o2
o2
o2
n2.25
v8
v13
v15
o2
o2
o2
n0.13
v9
v9
v15
o2
o2
o2
n6.53
v9
v12
v12
o2
o2
o2
n8.85
v11
v11
v11
o2
o2
o2
n8.9
v11
v11
v13
o2
o2
o2
n2.92
v12
v12
v14
o2
o2
o2
n8.46
v12
v12
v15
o2
o2
o2
n9.17
v14
v15
v15
C4
o54
9
o2
o2
n7.54
v0
v0
o2
o2
n3.57
v0
v10
o2
o2
n6.72
v2
v12
o2
o2
n2.23
v4
v7
o2
o2
n5.83
v6
v12
o2
o2
n7.83
v7
v8
o2
o2
n1.86
v7
v13
o2
o2
n1.25
v8
v11
o2
o2
n4.72
v9
v9
C5
n0
C6
n0
C7
n0
C8
n0
C9
n0
C10
n0
C11
n0
O0 0
o54
95
o2
o2
n2.67
v0
v0
o2
o2
n6.02
v0
v10
o2
o2
n8.18
v2
v12
o2
o2
n6.21
v4
v7
o2
o2
n1.65
v6
v12
o2
o2
n2.74
v7
v8
o2
o2
n6.34
v7
v13
o2
o2
n9.48
v8
v11
o2
o2
n6.57
v9
v9
o2
o2
o2
n0.41
v0
v0
v8
o2
o2
o2
n4.73
v0
v1
v2
o2
o2
o2
n5.38
v0
v1
v5
o2
o2
o2
n5.48
v0
v2
v12
o2
o2
o2
n0.72
v0
v3
v7
o16
o2
o2
o2
n3.81
v0
v5
v6
o2
o2
o2
n3.77
v0
v6
v15
o2
o2
o2
n8.33
v0
v7
v15
o2
o2
o2
n5.41
v0
v8
v9
o2
o2
o2
n6.54
v0
v8
v10
o2
o2
o2
n9.61
v0
v8
v14
o2
o2
o2
n3.5
v0
v9
v9
o2
o2
o2
n4.17
v0
v11
v11
o2
o2
o2
n0.5
v0
v15
v15
o16
o2
o2
o2
n1.56
v1
v1
v4
o2
o2
o2
n5.42
v1
v1
v7
o2
o2
o2
n4.01
v1
v3
v13
o2
o2
o2
n1.12
v1
v4
v14
o2
o2
o2
n1.92
v1
v7
v7
o2
o2
o2
n3.58
v1
v8
v8
o2
o2
o2
n9.67
v1
v9
v9
o2
o2
o2
n6.34
v1
v11
v14
o2
o2
o2
n7.74
v2
v3
v7
o2
o2
o2
n2.69
v2
v4
v4
o2
o2
o2
n5.46
v2
v4
v6
o2
o2
o2
n2.37
v2
v6
v6
o16
o2
o2
o2
n3.19
v2
v6
v12
o2
o2
o2
n4.12
v2
v9
v11
o2
o2
o2
n8.21
v2
v10
v11
o2
o2
o2
n0.8
v2
v10
v12
o2
o2
o2
n3.2
v2
v10
v13
o2
o2
o2
n8.61
v2
v11
v11
o2
o2
o2
n1.54
v2
v11
v15
o2
o2
o2
n6.89
v2
v12
v15
o2
o2
o2
n8.35
v2
v14
v14
o2
o2
o2
n0.21
v2
v15
v15
o2
o2
o2
n1.41
v3
v3
v12
o2
o2
o2
n9.15
v3
v4
v12
o16
o2
o2
v3
v6
v10
o2
o2
o2
n1.49
v3
v6
v15
o2
o2
o2
n2.8
v3
v7
v7
o2
o2
o2
n0.19
v3
v7
v11
o16
o2
o2
o2
n2.68
v3
v7
v14
o2
o2
o2
n9.95
v3
v8
v8
o2
o2
o2
n7.79
v3
v9
v15
o2
o2
o2
n8.72
v4
v4
v13
o2
o2
o2
n2.69
v4
v7
v11
o2
o2
o2
n5.77
v4
v8
v12
o2
o2
o2
n4.79
v4
v8
v15
o2
o2
o2
n2.96
v4
v10
v12
o2
o2
o2
n8.03
v5
v5
v5
o2
o2
o2
n0.69
v5
v5
v14
o2
o2
o2
n9.03
v5
v7
v9
o2
o2
o2
n5.13
v5
v7
v13
o2
o2
o2
n4.51
v5
v8
v8
o2
o2
o2
n8.26
v5
v8
v15
o16
o2
o2
o2
n4.34
v5
v10
v10
o2
o2
o2
n7.33
v5
v12
v12
o2
o2
o2
n9.1
v5
v12
v13
o2
o2
o2
n5.25
v6
v6
v12
o2
o2
o2
n6.18
v6
v7
v14
o2
o2
o2
n8.56
v6
v8
v11
o2
o2
o2
n3.64
v6
v8
v13
o2
o2
o2
n4.37
v6
v9
v13
o2
o2
o2
n5.82
v6
v11
v13
o2
o2
o2
n3.08
v6
v11
v15
o2
o2
o2
n9.65
v6
v12
v13
o2
o2
o2
n8.2
v6
v12
v15
o2
o2
o2
n5.94
v6
v13
v14
o2
o2
o2
n9.97
v7
v7
v8
o2
o2
o2
n4.51
v7
v9
v10
o2
o2
o2
n4.38
v7
v9
v14
o2
o2
o2
n7.34
v7
v10
v11
o2
o2
o2
n3.94
v7
v10
v15
o2
o2
o2
n8.8
v8
v8
v12
o2
o2
o2
n2.08
v8
v10
v12
o16
o2
o2
o2
n6.93
v8
v12
v14
o2
o2
o2
n7.41
v8
v12
v15
o16
o2
o2
o2
n4.97
v8
v13
v15
o16
o2
o2
o2
n9.67
v9
v9
v15
o2
o2
o2
n7.04
v9
v12
v12
o2
o2
o2
n3.81
v11
v11
v11
o2
o2
o2
n7.21
v11
v11
v13
o2
o2
o2
n3.69
v12
v12
v14
o16
o2
o2
o2
n5.88
v12
v12
v15
o16
o2
o2
o2
n2.18
v14
v15
v15
k15
9
19
29
38
48
57
67
77
88
98
108
117
128
138
149
J0 16
0 7.12
1 3.6
2 8.81
3 5.26
4 8.31
5 4.43
6 7
7 6.51
8 0.54
9 7.04
10 8.66
11 1.76
12 8.05
13 5.69
14 6.38
15 1.45
J1 16
0 2.98
1 0.46
2 8.9
3 1.33
4 2.57
5 4.73
6 0.07
7 9.36
8 6.23
9 5.48
10 3.38
11 -5.81
12 2.8
13 1.4
14 9.27
15 4.93
J2 16
0 3.29
1 5.92
2 1.55
3 5.1
4 -9.96
5 0.06
6 6.19
7 4.74
8 9.86
9 1.93
10 2.79
11 8.24
12 6.25
13 1.82
14 3.03
15 3.12
J3 16
0 7.05
1 1.85
2 2.01
3 1.03
4 8.09
5 9.89
6 4.01
7 7.84
8 -2.51
9 3
10 8.96
11 2.58
12 6.55
13 1.63
14 8.24
15 3.27
J4 16
0 6.4
1 9.51
2 5.27
3 9.75
4 7.63
5 5.36
6 1.05
7 1.37
8 1.75
9 1.91
10 0.4
11 5.09
12 8.67
13 4.38
14 4.3
15 -6.87
J5 8
1 4.5
5 0.31
7 2.16
8 0.9
10 6.04
12 0.32
13 7.45
14 -9.33
J6 8
1 0.5
2 4.61
7 -1.81
8 0.17
9 2.87
13 0.25
14 8.8
15 7.62
J7 8
0 4.25
2 6.8
4 7.21
6 1.24
10 5.38
11 2.68
12 2.52
15 2.08
J8 8
3 6.31
4 9.5
6 3.95
8 0.43
9 0.29
12 4.63
14 3.69
15 4.84
J9 16
0 8.49
1 -7.9
2 4.68
3 6.85
4 1.31
5 3.48
6 6.91
7 6.41
8 5.03
9 0.65
10 9.4
11 6.89
12 9.86
13 -7.25
14 -6.84
15 7.86
J10 16
0 1.15
1 3.27
2 6.54
3 3.76
4 0.94
5 1.27
6 7.83
7 0.69
8 3.93
9 7.6
10 4.96
11 2.5
12 5.88
13 5.19
14 3.33
15 9.86
J11 16
0 -0.72
1 3.35
2 4.07
3 1.35
4 3.34
5 -3.16
6 8.05
7 9.95
8 8.29
9 9.45
10 6
11 0.09
12 4.53
13 9.11
14 4.14
15 4.99
G0 16
0 7.78
1 1
2 5.57
3 2.6
4 9.95
5 1.29
6 9.66
7 3.97
8 0.24
9 9.28
10 9.59
11 0.66
12 8.36
13 1.78
14 1.48
15 -3.46
